language ESSENCE' 1.0
$ minion Nodes: 1
$ minion TotalTime: 0.001108
$ Savile Row TotalTime: 0.193
letting pain_tuple1 be [1, 1]
letting pain_tuple2_tuple1 be [[12], 
[12]]
letting pain_tuple2_tuple2_tuple2 be [[[28, 31]], 
[[28, 31]]]
letting pain_tuple2_tuple2_tuple1 be [[[55, 99]], 
[[55, 99]]]
